certificates/rado_a9_c258_N30.drat
-29 -30 0
d -27 -29 -30 0
-30 0
18 0
29 0
-26 0
-15 0
-21 0
2 0
14 0
6 0
3 0
27 0
9 0
28 0
-5 0
-11 0
-17 0
0
